



































































































1 67 39 63 51 
19 30 2 66 4 37 
43 9 21 35 26 
32 42 15 50 76 11 
13 75 36 53 62 
47 44 58 54 40 68 
17 72 61 10 28 
24 34 33 71 3 46 
74 65 48 52 31 
8 14 70 60 16 
5 55 38 41 56 
7 64 73 18 12 
22 6 0 57 
25 45 27 29 20 
23 59 69 49 
